25772 24988 24319 23899 23530 23197 22746 22434 21911 21804 21446 20919 20629 20371 20062 19533 19320 18880 18595 18282 17974 17821 17466 17402 16995 16995 16788 16620 16432 16245 16069 15918 15654 15601 15451 15352 15214 14975 14907 14850 14715 14586 14440 14335 14189 14101 13942 13741 13606 13522 13441 13360 13222 13108 13025 12961 12843 12759 12653 12543 12473 12381 12289 12233 12182 12121 12019 11916 11856 11748 11679 11590 11511 11444 11369 11333 11277 11198 11161 11121 11079 11031 10980 10951 10899 10835 10775 10755 10678 10604 10543 10469 10469 10418 10404 10342 10337 10286 10238 10186 10166 10100 10064 10042 10006 9942 9927 9869 9845 9797 9791 9716 9682 9668 9613 9601 9564 9541 9523 9498 9479 9462 9452 9435 9422 9377 9354 9329 9278 9267 9255 9241 9227 9213 9196 9184 9172 9163 9128 9120 9087 9031 9013 9000 8969 8961 8936 8925 8905 8891 8882 8868 8859 8836 8821 8781 8764 8742 8731 8713 8701 8683 8664 8645 8617 8592 8570 8556 8535 8521 8512 8496 8496 8475 8451 8429 8428 8408 8392 8359 8355 8334 8314 8293 8284 8257 8250 8231 8204 8188 8179 8168 8158 8147 8074 8066 8048 8013 8011 8002 7992 7985 7975 7968 7952 7941 7936 7920 7903 7894 7870 7847 7817 7776 7763 7759 7752 7746 7697 7689 7678 7668 7661 7656 7652 7644 7633 7631 7627 7617 7606 7591 7583 7563 7537 7534 7524 7514 7509 7480 7480 7475 7464 7463 7445 7436 7434 7422 7413 7413 7406 7380 7380 7360 7353 7350 7349 7341 7341 7335 7326 7324 7321 7317 7311 7290 7290 7290 7280 7270 7259 7252 7248 7240 7240 7227 7222 7215 7203 7196 7188 7180 7173 7170 7158 7157 7149 7140 7136 7122 7105 7103 7084 7080 7072 7066 7066 7060 7054 7053 7030 7030 7014 6998 6988 6973 6963 6953 6938 6925 6915 6915 6907 6901 6885 6877 6875 6875 6864 6864 6864 6860 6858 6857 6854 6851 6844 6836 6829 6829 6822 6821 6820 6809 6809 6806 6805 6804 6796 6794 6791 6783 6779 6774 6774 6769 6764 6760 6757 6752 6748 6741 6738 6729 6729 6717 6712 6704 6696 6689 6689 6689 6683 6683 6683 6683 6675 6675 6671 6659 6655 6654 6649 6648 6648 6645 6645 6645 6645 6642 6642 6641 6638 6636 6634 6634 6633 6632 6631 6629 6627 6624 6623 6621 6620 6619 6605 6605 6601 6600 6599 6598 6595 6593 6589 6585 6583 6578 6577 6574 6573 6563 6557 6556 6545 6542 6541 6540 6536 6533 6530 6527 6527 6523 6523 6520 6520 6520 6520 6519 6514 6514 6513 6512 6511 6505 6505 6504 6504 6503 6502 6499 6499 6496 6494 6468 6465 6465 6464 6464 6455 6455 6455 6450 6450 6450 6449 6443 6443 6442 6438 6437 6430 6430 6390 6390 6388 6387 6384 6384 6383 6379 6378 6378 6377 6376 6376 6376 6375 6371 6371 6369 6368 6367 6367 6359 6359 6358 6358 6358 6358 6353 6353 6353 6352 6352 6351 6351 6350 6350 6349 6349 6349 6345 6345 6345 6341 6341 6341 6339 6339 6339 6337 6334 6330 6328 6327 6325 6325 6324 6323 6323 6323 6323 6322 6322 6322 6316 6316 6316 6316 6315 6307 6304 6295 6295 6294 6293 6293 6293 6292 6292 6291 6291 6290 6290 6289 6289 6288 6288 6244 6244 6243 6234 6209 6208 6202 6199 6199 6199 6199 6199 6199 6199 6199 6199 6198 6198 6198 6198 6198 6198 6197 6189 6189 6188 6186 6183 6183 6180 6180 6180 6180 6179 6179 6178 6178 6178 6173 6173 6173 6170 6168 6165 6165 6165 6165 6161 6161 6161 6159 6159 6159 6130 6130 6130 6119 6113 6111 6111 6111 6111 6108 6108 6105 6105 6103 6103 6092 6090 6089 6089 6089 6089 6089 6088 6088 6088 6088 6085 6085 6085 6075 6075 6021 6021 6021 6011 6011 6011 6011 6011 6011 6011 6011 6004 6004 6004 6002 6001 5999 5999 5999 5999 5999 5997 5997 5997 5997 5995 5995 5995 5995 5992 5992 5991 5991 5991 5991 5991 5991 5991 5991 5991 5984 5984 5984 5981 5981 5981 5981 5981 5981 5981 5981 5981 5981 5981 5981 5981 5981 5980 5979 5979 5978 5978 5978 5978 5978 5978 5978 5978 5978 5978 5978 5978 5978 5978 5978 5978 5978 5978 5978 5978 5978 5978 5978 5978 5978 5978 5978 5978 5978 5978 5978 5978 5978 5978 5978 5978 5978 5977 5977 5977 5977 5977 5977 5977 5977 5977 5977 5977 5977 5977 5977 5977 5977 5977 5977 5977 5977 5977 5977 5977 5977 5977 5977 5977 5977 5977 5977 5977 5977 5977 5977 5977 5977 5977 5977 5977 5977 5977 5977 5977 5977 5977 5977 5977 5977 5977 5977 5977 5977 5977 5977 5977 5977 5977 5977 5977 5977 5977 5977 5977 5977 5977 5977 5977 5977 5977 5977 5977 5977 5977 5977 5977 5977 5977 5977 5977 5977 5977 5977 5977 5977 5977 5977 5977 5977 5977 5977 5977 5977 5977 5977 5977 5977 5977 5977 5977 5977 5977 5977 5977 5977 5977 5977 5977 5977 5977 5977 5977 5977 5977 5977 5977 5977 5977 5977 5977 5977 5977 5977 5977 5977 5977 5977 5977 5977 5977 5977 5977 5977 5977 5977 5977 5977 5977 5977 5977 5977 5977 5977 5977 5977 5977 5977 5977 5977 5977 5977 5977 5977 5977 5977 5977 5977 5977 5977 5977 5977 5977 5977 5977 5977 5977 5977 5977 5977 5977 5977 5977 5977 5977 5977 5977 5977 5977 5977 5977 5977 5977 5977 5977 5977 5977 5977 5977 5977 5977 5977 5977 5977 5977 5977 5977 5977 5977 5977 5977 5977 5977 5977 5977 5977 5977 5977 5977 5977 5977 5977 5977 5977 5977 5977 5977 5977 5977 5977 5977 5977 5977 5977 5977 5977 5977 5977 5977 5977 5977 5977 5977 5977 5977 5977 5977 5977 5977 5977 5977 5975 5975 5975 5975 5975 5975 5975 5975 5975 5975 5975 5975 5975 5975 5975 5975 5975 5975 5975 5975 5975 5975 5975 5975 5975 5975 5975 5975 5975 5975 5975 5975 5975 5975 5975 5975 5975 5975 5975 5975 5975 5975 5975 5975 5975 5975 5975 5975 5975 5975 5975 5975 5975 5975 5975 5975 5975 5975 5975 5975 5975 5975 5975 5975 5975 5975 5975 5974 5974 5974 5974 5974 5974 5974 5974 5974 5974 5974 5974 5974 5966 5966 5966 5966 5966 5966 5966 5966 5966 5966 5966 5966 5966 5966 5966 5966 5966 5966 5966 5966 5966 5966 5966 5966 5966 5966 5966 5966 5966 5966 5966 5966 5966 5966 5966 5966 5966 5966 5966 5966 5966 5966 5966 5966 5966 5966 5966 5966 5966 5966 5966 5966 5966 5966 5966 5966 5966 5966 5966 5966 5966 5966 5966 5966 5966 5966 5966 5966 5966 5966 5966 5966 5966 5966 5966 5966 5966 5966 5966 5966 5966 5966 5966 5966 5966 5966 5966 5966 5966 5966 5966 5966 5966 5966 5966 5966 5966 5966 5966 5966 5966 5966 5966 5965 5965 5965 5965 5965 5965 5965 5965 5965 5965 5965 5965 5965 5965 5965 5965 5965 5965 5965 5965 5965 5965 5965 5965 5965 5965 5965 5965 5965 5965 5965 5965 5965 5965 5965 5965 5965 5965 5965 5965 5965 5965 5965 5965 5965 5965 5965 5965 5965 5965 5965 5965 5965 5965 5965 5965 5965 5965 5965 5965 5965 5965 5965 5965 5965 5965 5965 5965 5965 5965 5965 5965 5965 5965 5965 5965 5965 5965 5965 5965 5965 5965 5965 5965 5965 5965 5965 5965 5965 5965 5965 5965 5965 5965 5965 5965 5965 5965 5965 5965 5965 5965 5965 5965 5965 5965 5965 5965 5965 5965 5965 5965 5965 5965 5965 5965 5965 5965 5965 5965 5965 5965 5965 5965 5965 5965 5965 5965 5965 5965 5965 5965 5965 5965 5965 5965 5965 5965 5965 5965 5965 5965 5965 5965 5965 5965 5965 5965 5965 5965 5965 5965 5965 5965 5965 5965 5965 5965 5965 5965 5965 5965 5965 5965 5965 5965 5965 5965 5965 5965 5965 5965 5965 5965 5965 5965 5965 5965 5965 5965 5965 5965 5965 5965 5965 5965 5965 5965 5965 5965 5965 5965 5965 5965 5965 5965 5965 5965 5965 5965 5965 5965 5965 5965 5965 5965 5965 5965 5965 5965 5965 5965 5965 5965 5965 5965 5965 5965 5965 5965 5965 5965 5965 5965 5965 5965 5965 5965 5965 5965 5965 5965 5965 5965 5965 5965 5965 5965 5965 5965 5965 5965 5965 5965 5965 5965 5965 5965 5965 5965 5965 5965 5965 5965 5965 5965 5965 5965 5965 5965 5965 5965 5965 5965 5965 5965 5965 5965 5965 5965 5965 5965 5965 5965 5965 5965 5965 5965 5965 5965 5965 5965 5965 5965 5965 5965 5965 5965 5965 5965 5965 5965 5965 5965 5965 5965 5965 5965 5965 5965 5965 5965 5965 5965 5965 5965 5965 5965 5965 5965 5965 5965 5965 5965 5965 5965 5965 5965 5965 5965 5965 5965 5965 5965 5965 5965 5965 5965 5965 5965 5965 5965 5965 5965 5965 5965 5965 5965 5965 5965 5965 5965 5965 5965 5965 5965 5965 
27339 26393 25752 25239 24768 24294 23905 23545 23183 22702 22266 21812 21489 21089 20755 20447 20101 19740 19356 18996 18639 18361 18078 17820 17584 17391 17215 17040 16881 16710 16533 16348 16175 16007 15840 15667 15518 15377 15245 15108 14976 14861 14748 14626 14498 14371 14248 14117 13978 13833 13703 13576 13472 13366 13251 13148 13053 12961 12868 12767 12675 12584 12497 12409 12325 12265 12205 12139 12059 11980 11887 11777 11680 11594 11524 11457 11393 11332 11271 11209 11165 11119 11077 11034 10992 10944 10895 10850 10800 10748 10690 10625 10552 10500 10475 10438 10410 10380 10336 10290 10247 10204 10160 10117 10076 10039 9998 9958 9920 9880 9838 9800 9788 9770 9706 9672 9635 9604 9572 9551 9528 9503 9480 9462 9455 9440 9418 9393 9362 9325 9298 9275 9257 9242 9227 9213 9199 9185 9172 9160 9147 9120 9090 9062 9027 9002 8974 8955 8938 8922 8911 8898 8884 8869 8854 8831 8806 8780 8761 8746 8725 8710 8696 8681 8661 8644 8622 8599 8580 8561 8542 8525 8517 8506 8495 8478 8461 8445 8426 8405 8389 8372 8352 8333 8322 8291 8283 8270 8245 8228 8208 8188 8177 8167 8155 8143 8127 8083 8055 8033 8013 8004 7995 7985 7975 7968 7957 7945 7935 7921 7904 7883 7861 7838 7815 7778 7763 7760 7754 7748 7740 7727 7686 7673 7666 7658 7650 7645 7639 7633 7627 7618 7607 7597 7585 7562 7556 7534 7525 7517 7508 7498 7489 7477 7472 7463 7454 7442 7434 7429 7421 7416 7409 7403 7391 7375 7362 7352 7349 7346 7339 7333 7329 7324 7320 7318 7312 7308 7302 7289 7283 7276 7263 7255 7250 7245 7235 7228 7221 7213 7202 7194 7188 7180 7175 7169 7159 7156 7155 7147 7133 7118 7108 7103 7097 7087 7073 7069 7065 7061 7057 7052 7046 7029 7017 7004 6990 6972 6965 6955 6937 6932 6918 6914 6913 6905 6897 6883 6876 6874 6874 6871 6863 6863 6859 6857 6852 6849 6843 6837 6832 6828 6822 6821 6820 6818 6809 6806 6805 6804 6803 6794 6789 6780 6779 6775 6773 6769 6767 6763 6757 6752 6749 6740 6737 6730 6728 6725 6714 6703 6695 6690 6688 6688 6688 6683 6682 6682 6681 6675 6671 6664 6654 6653 6653 6647 6647 6646 6645 6644 6644 6644 6641 6641 6638 6635 6635 6633 6633 6632 6631 6628 6626 6624 6623 6622 6619 6619 6618 6605 6600 6599 6599 6598 6597 6594 6591 6585 6579 6577 6577 6576 6572 6571 6558 6554 6546 6544 6541 6538 6535 6533 6532 6526 6526 6526 6525 6522 6520 6519 6519 6519 6518 6513 6512 6511 6511 6510 6509 6504 6504 6503 6503 6501 6498 6495 6493 6490 6466 6464 6464 6463 6463 6454 6454 6454 6449 6449 6449 6448 6445 6441 6439 6436 6434 6429 6427 6393 6388 6387 6386 6383 6382 6382 6378 6377 6377 6376 6375 6375 6375 6374 6370 6368 6367 6366 6366 6365 6358 6358 6358 6357 6357 6357 6353 6352 6352 6351 6351 6350 6350 6349 6349 6348 6348 6348 6344 6344 6344 6340 6340 6340 6339 6338 6337 6336 6331 6329 6327 6325 6324 6324 6323 6323 6322 6322 6322 6321 6321 6321 6320 6315 6315 6315 6314 6306 6301 6294 6293 6293 6292 6292 6292 6291 6291 6290 6289 6289 6289 6288 6287 6287 6284 6256 6243 6241 6232 6217 6202 6201 6199 6199 6199 6199 6199 6199 6198 6198 6198 6198 6198 6198 6197 6197 6197 6196 6188 6187 6187 6186 6182 6180 6180 6179 6179 6179 6178 6178 6177 6177 6177 6176 6172 6172 6169 6166 6165 6164 6164 6164 6163 6160 6160 6159 6158 6158 6151 6129 6125 6116 6111 6111 6110 6110 6110 6107 6106 6104 6104 6102 6102 6092 6089 6089 6089 6088 6088 6088 6088 6087 6087 6087 6085 6084 6084 6074 6066 6048 6020 6016 6011 6011 6011 6011 6011 6010 6010 6010 6003 6003 6002 6001 6000 5999 5999 5998 5998 5998 5998 5996 5996 5996 5995 5994 5994 5994 5991 5991 5991 5991 5991 5991 5991 5991 5990 5990 5990 5987 5983 5983 5981 5981 5981 5981 5981 5981 5981 5981 5981 5981 5981 5980 5980 5980 5979 5978 5978 5978 5978 5978 5978 5978 5978 5978 5978 5978 5978 5978 5978 5978 5978 5978 5978 5978 5978 5978 5978 5978 5978 5978 5978 5978 5978 5978 5978 5978 5978 5978 5978 5978 5978 5977 5977 5977 5977 5977 5977 5977 5977 5977 5977 5977 5977 5977 5977 5977 5977 5977 5977 5977 5977 5977 5977 5977 5977 5977 5977 5977 5977 5977 5977 5977 5977 5977 5977 5977 5977 5977 5977 5977 5977 5977 5977 5977 5977 5977 5977 5977 5977 5977 5977 5977 5977 5977 5977 5977 5977 5977 5977 5977 5977 5977 5977 5977 5977 5977 5977 5977 5977 5977 5977 5977 5977 5977 5977 5977 5977 5977 5977 5977 5977 5977 5977 5977 5977 5977 5977 5977 5977 5977 5977 5977 5977 5977 5977 5977 5977 5977 5977 5977 5977 5977 5977 5977 5977 5977 5977 5977 5977 5977 5977 5977 5977 5977 5977 5977 5977 5977 5977 5977 5977 5977 5977 5977 5977 5977 5977 5977 5977 5977 5977 5977 5977 5977 5977 5977 5977 5977 5977 5977 5977 5977 5977 5977 5977 5977 5977 5977 5977 5977 5977 5977 5977 5977 5977 5977 5977 5977 5977 5977 5977 5977 5977 5977 5977 5977 5977 5977 5977 5977 5977 5977 5977 5977 5977 5977 5977 5977 5977 5977 5977 5977 5977 5977 5977 5977 5977 5977 5977 5977 5977 5977 5977 5977 5977 5977 5977 5977 5977 5977 5977 5977 5977 5977 5977 5977 5977 5977 5977 5977 5977 5977 5977 5977 5977 5977 5977 5977 5977 5977 5977 5977 5977 5977 5977 5977 5977 5977 5977 5977 5977 5977 5977 5977 5977 5977 5977 5977 5977 5977 5976 5976 5976 5975 5975 5975 5975 5975 5975 5975 5975 5975 5975 5975 5975 5975 5975 5975 5975 5975 5975 5975 5975 5975 5975 5975 5975 5975 5975 5975 5975 5975 5975 5975 5975 5975 5975 5975 5975 5975 5975 5975 5975 5975 5975 5975 5975 5975 5975 5975 5975 5975 5975 5975 5975 5975 5975 5975 5975 5975 5975 5975 5975 5975 5975 5975 5975 5974 5974 5974 5974 5974 5974 5974 5974 5974 5974 5974 5974 5974 5973 5973 5973 5966 5966 5966 5966 5966 5966 5966 5966 5966 5966 5966 5966 5966 5966 5966 5966 5966 5966 5966 5966 5966 5966 5966 5966 5966 5966 5966 5966 5966 5966 5966 5966 5966 5966 5966 5966 5966 5966 5966 5966 5966 5966 5966 5966 5966 5966 5966 5966 5966 5966 5966 5966 5966 5966 5966 5966 5966 5966 5966 5966 5966 5966 5966 5966 5966 5966 5966 5966 5966 5966 5966 5966 5966 5966 5966 5966 5966 5966 5966 5966 5966 5966 5966 5966 5966 5966 5966 5966 5966 5966 5966 5966 5966 5966 5966 5966 5966 5966 5966 5966 5965 5965 5965 5965 5965 5965 5965 5965 5965 5965 5965 5965 5965 5965 5965 5965 5965 5965 5965 5965 5965 5965 5965 5965 5965 5965 5965 5965 5965 5965 5965 5965 5965 5965 5965 5965 5965 5965 5965 5965 5965 5965 5965 5965 5965 5965 5965 5965 5965 5965 5965 5965 5965 5965 5965 5965 5965 5965 5965 5965 5965 5965 5965 5965 5965 5965 5965 5965 5965 5965 5965 5965 5965 5965 5965 5965 5965 5965 5965 5965 5965 5965 5965 5965 5965 5965 5965 5965 5965 5965 5965 5965 5965 5965 5965 5965 5965 5965 5965 5965 5965 5965 5965 5965 5965 5965 5965 5965 5965 5965 5965 5965 5965 5965 5965 5965 5965 5965 5965 5965 5965 5965 5965 5965 5965 5965 5965 5965 5965 5965 5965 5965 5965 5965 5965 5965 5965 5965 5965 5965 5965 5965 5965 5965 5965 5965 5965 5965 5965 5965 5965 5965 5965 5965 5965 5965 5965 5965 5965 5965 5965 5965 5965 5965 5965 5965 5965 5965 5965 5965 5965 5965 5965 5965 5965 5965 5965 5965 5965 5965 5965 5965 5965 5965 5965 5965 5965 5965 5965 5965 5965 5965 5965 5965 5965 5965 5965 5965 5965 5965 5965 5965 5965 5965 5965 5965 5965 5965 5965 5965 5965 5965 5965 5965 5965 5965 5965 5965 5965 5965 5965 5965 5965 5965 5965 5965 5965 5965 5965 5965 5965 5965 5965 5965 5965 5965 5965 5965 5965 5965 5965 5965 5965 5965 5965 5965 5965 5965 5965 5965 5965 5965 5965 5965 5965 5965 5965 5965 5965 5965 5965 5965 5965 5965 5965 5965 5965 5965 5965 5965 5965 5965 5965 5965 5965 5965 5965 5965 5965 5965 5965 5965 5965 5965 5965 5965 5965 5965 5965 5965 5965 5965 5965 5965 5965 5965 5965 5965 5965 5965 5965 5965 5965 5965 5965 5965 5965 5965 5965 5965 5965 5965 5965 5965 5965 5965 5965 5965 5965 5965 5965 5965 5965 5965 5965 5965 5965 5965 5965 5965 5965 5965 5965 5965 5965 5965 5965 5965 5965 5965 5965 5965 5965 5965 5965 5965 5965 